# Objective value = 134
WA1n 0
WA1p 0
WA2n 1
WA2p 0
WB1n 0
WB1p 0
WB2n 1
WB2p 0
WC1n 0
WC1p 0
WC2n 1
WC2p 0
WD1n 0
WD1p 1
WD2n 0
WD2p 1
WE1n 0
WE1p 1
WE2n 0
WE2p 1
WF1n 3
WF1p 0
WF2n 1
WF2p 0
WG1n 0
WG1p 3
WG2n 0
WG2p 1
WH1n 8
WH1p 0
WH2n 1
WH2p 0
WI1n 0
WI1p 8
WI2n 0
WI2p 1
WJ1n 0
WJ1p 8
WJ2n 0
WJ2p 1
WK1n 29
WK1p 0
WL1n 0
WL1p 29
WT1n 0
WT1p 24
5 7
a 0
b 0
c 0
d 0
e 0
f 0
g 1
h 1
i 1
j 1
k 0
l 0
m 1
n 1
o 0
p 0
q 1
r 1
s 1
t 1
u 0
v 1
w 1
